WARNING: for repeatability, setting FPU to use double precision
============================[ Problem Statistics ]=============================
|                                                                             |
|  Number of variables:           100                                         |
|  Number of clauses:             449                                         |
|  Parse time:                   0.00 s                                       |
|  Simplification time:          0.00 s                                       |
|                                                                             |
============================[ Search Statistics ]==============================
| Conflicts |          ORIGINAL         |          LEARNT          | Progress |
|           |    Vars  Clauses Literals |    Limit  Clauses Lit/Cl |          |
===============================================================================
|       100 |     100      449     1347 |      164      100      8 |  0.010 % |
===============================================================================
restarts              : 2
conflicts             : 176            (135073 /sec)
decisions             : 230            (0.00 % random) (176516 /sec)
propagations          : 4473           (3432847 /sec)
conflict literals     : 1385           (13.27 % deleted)
Memory used           : 13.00 MB
CPU time              : 0.001303 s

SATISFIABLE
